
Gurobi 6.0.4 (win64) logging started 06/21/15 19:06:15

Read LP format model from file C:\MT\repository\VRPTWMS\instances\mip\fuel\N4-C_DV100-C_SV30_F6_13_No_1.lp
Reading time = 0.01 seconds
(null): 129 rows, 76 columns, 459 nonzeros
Optimize a model with 129 rows, 76 columns and 459 nonzeros
Model has 80 quadratic constraints
Coefficient statistics:
  Matrix range    [1e+00, 1e+06]
  Objective range [2e+04, 1e+07]
  Bounds range    [1e+00, 1e+06]
  RHS range       [1e+00, 1e+06]
Presolve removed 31 rows and 16 columns
Presolve time: 0.03s
Presolved: 231 rows, 131 columns, 976 nonzeros
Variable types: 62 continuous, 69 integer (48 binary)
Found heuristic solution: objective 4.141420e+07

Root relaxation: objective 1.109340e+07, 19 iterations, 0.00 seconds

    Nodes    |    Current Node    |     Objective Bounds      |     Work
 Expl Unexpl |  Obj  Depth IntInf | Incumbent    BestBd   Gap | It/Node Time

     0     0 1.1093e+07    0    1 4.1414e+07 1.1093e+07  73.2%     -    0s
H    0     0                    2.111100e+07 1.1093e+07  47.5%     -    0s
     0     0 1.1093e+07    0    2 2.1111e+07 1.1093e+07  47.5%     -    0s
     0     0 1.1207e+07    0    5 2.1111e+07 1.1207e+07  46.9%     -    0s
     0     0 1.1323e+07    0   23 2.1111e+07 1.1323e+07  46.4%     -    0s
     0     0 1.1325e+07    0   14 2.1111e+07 1.1325e+07  46.4%     -    0s
     0     0 1.1325e+07    0   14 2.1111e+07 1.1325e+07  46.4%     -    0s
     0     0 1.1325e+07    0   11 2.1111e+07 1.1325e+07  46.4%     -    0s

Cutting planes:
  Cover: 4
  Implied bound: 2
  Clique: 1
  MIR: 2

Explored 0 nodes (142 simplex iterations) in 0.06 seconds
Thread count was 2 (of 4 available processors)

Optimal solution found (tolerance 1.00e-04)
Best objective 2.111100000000e+07, best bound 2.111100000000e+07, gap 0.0%
k_c1	20000.0
k_c2	920000.0
k_c3	1000000.0
k_c4	889999.0
k_dN	-0.0
o_1	0.0
o_2	0.0
o_3	0.0
o_4	0.0
p_1	0.0
p_2	0.0
p_3	0.0
p_4	0.0
phi_c1	8797.0
phi_c2	58501.0
phi_c3	39930.0
phi_c4	42752.0
phi_dN	0.0
pi_c1	0.0
pi_c2	0.0
pi_c3	0.0
pi_c4	0.0
pi_dN	-0.0
tauD_c1	800000.0
tauD_c2	250000.0
tauD_c3	128275.0
tauD_c4	450000.0
tauD_d0	-0.0
tauD_dN	1000000.0
tauS_c1	887125.0
tauS_c2	0.0
tauS_c3	843799.0
tauS_c4	856700.0
tauS_d0	-0.0
tauS_dN	21725.0
x_c1_dN	1.0
x_c2_c4	1.0
x_c3_dN	1.0
x_c4_c1	1.0
x_d0_c2	1.0
x_d0_c3	1.0
